
Log started (V12.8.0.0) Wed Aug 29 20:25:03 2018

New value for time limit in seconds: 500
CPXPARAM_TimeLimit                               500
CPXPARAM_Emphasis_Numerical                      1
CPXPARAM_Parallel                                -1
CPXPARAM_Benders_Strategy                        3
CPXPARAM_MIP_Tolerances_Integrality              9.9999999999999995e-08
CPXPARAM_MIP_Pool_AbsGap                         0
Tried aggregator 4 times.
MIP Presolve eliminated 8264 rows and 3792 columns.
Aggregator did 1213 substitutions.
Reduced MIP has 2389 rows, 2443 columns, and 8890 nonzeros.
Reduced MIP has 25 binaries, 0 generals, 0 SOSs, and 0 indicators.
Presolve time = 0.01 sec. (14.94 ticks)
Found incumbent of value 0.000000 after 0.02 sec. (23.73 ticks)
Tried aggregator 1 time.
Reduced MIP has 2389 rows, 2443 columns, and 8890 nonzeros.
Reduced MIP has 25 binaries, 0 generals, 0 SOSs, and 0 indicators.
Presolve time = 0.00 sec. (2.44 ticks)

        Nodes                                         Cuts/
   Node  Left     Objective  IInf  Best Integer    Best Bound    ItCnt     Gap

      0     0       10.0000                       Benders: 10        0         
      0     0       10.0000                        Benders: 1        3         
      0     0       10.0000                        Benders: 2        4         
      0     0       10.0000                        Benders: 4        5         
      0     0       10.0000                        Benders: 5        6         
      0     0       10.0000                        Benders: 5        9         
      0     0       10.0000                        Benders: 2       12         
      0     0       10.0000                        Benders: 2       14         
Tried aggregator 1 time.
MIP Presolve eliminated 2 rows and 0 columns.
MIP Presolve modified 328 coefficients.
Reduced MIP has 30 rows, 35 columns, and 206 nonzeros.
Reduced MIP has 25 binaries, 0 generals, 0 SOSs, and 0 indicators.
Presolve time = 0.00 sec. (0.06 ticks)
Probing time = 0.00 sec. (0.01 ticks)
Tried aggregator 1 time.
Reduced MIP has 30 rows, 35 columns, and 206 nonzeros.
Reduced MIP has 25 binaries, 0 generals, 0 SOSs, and 0 indicators.
Presolve time = 0.00 sec. (0.05 ticks)
Probing time = 0.00 sec. (0.01 ticks)
MIP emphasis: balance optimality and feasibility.
MIP search method: dynamic search.
Parallel mode: opportunistic, using up to 8 threads.
Root relaxation solution time = 0.00 sec. (0.06 ticks)
*     0+    0                            0.0000       10.0000              --- 
      0     0       10.0000     6        0.0000       10.0000       36     --- 
*     0+    0                            0.8571       10.0000              --- 
      0     0       10.0000     5        0.8571       Cuts: 5       40     --- 
      0     0       10.0000     5        0.8571      Fract: 2       43     --- 
      0     0       10.0000     4        0.8571       Cuts: 2       45     --- 
      0     0       10.0000     4        0.8571       Cuts: 6       49     --- 

Repeating presolve.
Tried aggregator 1 time.
MIP Presolve modified 2 coefficients.
Reduced MIP has 30 rows, 35 columns, and 206 nonzeros.
Reduced MIP has 25 binaries, 0 generals, 0 SOSs, and 0 indicators.
Presolve time = 0.00 sec. (0.08 ticks)
Probing time = 0.00 sec. (0.01 ticks)
Tried aggregator 1 time.
Reduced MIP has 30 rows, 35 columns, and 206 nonzeros.
Reduced MIP has 25 binaries, 0 generals, 0 SOSs, and 0 indicators.
Presolve time = 0.00 sec. (0.05 ticks)
Represolve time = 0.00 sec. (0.59 ticks)
Probing time = 0.00 sec. (0.01 ticks)
MIP emphasis: balance optimality and feasibility.
MIP search method: dynamic search.
Parallel mode: opportunistic, using up to 8 threads.
Root relaxation solution time = 0.00 sec. (0.19 ticks)
*     0+    0                            0.8571       10.0000              --- 
      0     0       10.0000     8        0.8571       10.0000       93     --- 
      0     0       10.0000    10        0.8571       Cuts: 7       96     --- 
      0     2       10.0000     4        0.8571       10.0000       96     --- 
Elapsed time = 0.30 sec. (261.39 ticks, tree = 0.01 MB, solutions = 1)
*    40+   13                            0.8571       10.0000              --- 

Benders cuts applied:  243
Cover cuts applied:  2
Mixed integer rounding cuts applied:  3
Zero-half cuts applied:  2
Gomory fractional cuts applied:  6

Root node processing (before b&c):
  Real time             =    0.29 sec. (261.12 ticks)
Parallel b&c, 8 threads:
  Real time             =    0.14 sec. (70.09 ticks)
  Sync time (average)   =    0.02 sec.
  Wait time (average)   =    0.00 sec.
                          ------------
Total (root+branch&cut) =    0.42 sec. (331.21 ticks)

Solution pool: 3 solutions saved.

MIP - Integer optimal solution:  Objective =  5.0000000000e+00
Solution time =    0.43 sec.  Iterations = 2365  Nodes = 258 (1)
Deterministic time = 331.80 ticks  (780.33 ticks/sec)


Solution pool written to file 'ngp_a7_b0_n2.sol'.
Current MIP best bound =  5.0000000000e+00 (gap = -0, 0.00%)
